data/lp_files/pEFS/69_7.lp
\ Model foo
\ LP format - for model browsing. Use MPS format to capture full model detail.
Minimize
  z
Subject To
 allocateEach[1]: x[1,1] + x[2,1] + x[3,1] + x[4,1] = 1
 allocateEach[2]: x[1,2] + x[2,2] + x[3,2] + x[4,2] = 1
 allocateEach[3]: x[1,3] + x[2,3] + x[3,3] + x[4,3] = 1
 allocateEach[4]: x[1,4] + x[2,4] + x[3,4] + x[4,4] = 1
 allocateEach[5]: x[1,5] + x[2,5] + x[3,5] + x[4,5] = 1
 allocateEach[6]: x[1,6] + x[2,6] + x[3,6] + x[4,6] = 1
 allocateEach[7]: x[1,7] + x[2,7] + x[3,7] + x[4,7] = 1
 allocateEach[8]: x[1,8] + x[2,8] + x[3,8] + x[4,8] = 1
 allocateEach[9]: x[1,9] + x[2,9] + x[3,9] + x[4,9] = 1
 allocateAllCash: cashProportion[1] + cashProportion[2] + cashProportion[3]
   + cashProportion[4] = 1
 findWorstP[1,2]: z + 0.1200144017282074 cashProportion[1]
   - 0.1200144017282074 cashProportion[2] + 0.1772812737528504 x[1,1]
   + 0.1343961275353042 x[1,2] + 0.1107932951954235 x[1,3]
   + 0.0350842101052126 x[1,4] + 0.0401048125775093 x[1,5]
   + 0.1458775053006361 x[1,6] + 0.1244949393927271 x[1,7]
   + 0.0343041164939793 x[1,8] + 0.0776493179181502 x[1,9]
   - 0.1772812737528504 x[2,1] - 0.1343961275353042 x[2,2]
   - 0.1107932951954235 x[2,3] - 0.0350842101052126 x[2,4]
   - 0.0401048125775093 x[2,5] - 0.1458775053006361 x[2,6]
   - 0.1244949393927271 x[2,7] - 0.0343041164939793 x[2,8]
   - 0.0776493179181502 x[2,9] >= 0
 findWorstP[1,3]: z + 0.1200144017282074 cashProportion[1]
   - 0.1200144017282074 cashProportion[3] + 0.1772812737528504 x[1,1]
   + 0.1343961275353042 x[1,2] + 0.1107932951954235 x[1,3]
   + 0.0350842101052126 x[1,4] + 0.0401048125775093 x[1,5]
   + 0.1458775053006361 x[1,6] + 0.1244949393927271 x[1,7]
   + 0.0343041164939793 x[1,8] + 0.0776493179181502 x[1,9]
   - 0.1772812737528504 x[3,1] - 0.1343961275353042 x[3,2]
   - 0.1107932951954235 x[3,3] - 0.0350842101052126 x[3,4]
   - 0.0401048125775093 x[3,5] - 0.1458775053006361 x[3,6]
   - 0.1244949393927271 x[3,7] - 0.0343041164939793 x[3,8]
   - 0.0776493179181502 x[3,9] >= 0
 findWorstP[1,4]: z + 0.1200144017282074 cashProportion[1]
   - 0.1200144017282074 cashProportion[4] + 0.1772812737528504 x[1,1]
   + 0.1343961275353042 x[1,2] + 0.1107932951954235 x[1,3]
   + 0.0350842101052126 x[1,4] + 0.0401048125775093 x[1,5]
   + 0.1458775053006361 x[1,6] + 0.1244949393927271 x[1,7]
   + 0.0343041164939793 x[1,8] + 0.0776493179181502 x[1,9]
   - 0.1772812737528504 x[4,1] - 0.1343961275353042 x[4,2]
   - 0.1107932951954235 x[4,3] - 0.0350842101052126 x[4,4]
   - 0.0401048125775093 x[4,5] - 0.1458775053006361 x[4,6]
   - 0.1244949393927271 x[4,7] - 0.0343041164939793 x[4,8]
   - 0.0776493179181502 x[4,9] >= 0
 findWorstP[2,1]: z - 0.0974025974025974 cashProportion[1]
   + 0.0974025974025974 cashProportion[2] - 0.1399512987012987 x[1,1]
   - 0.1232142857142857 x[1,2] - 0.0653084415584416 x[1,3]
   - 0.1409902597402597 x[1,4] - 0.1120454545454545 x[1,5]
   - 0.0796915584415584 x[1,6] - 0.127012987012987 x[1,7]
   - 0.0633279220779221 x[1,8] - 0.0510551948051948 x[1,9]
   + 0.1399512987012987 x[2,1] + 0.1232142857142857 x[2,2]
   + 0.0653084415584416 x[2,3] + 0.1409902597402597 x[2,4]
   + 0.1120454545454545 x[2,5] + 0.0796915584415584 x[2,6]
   + 0.127012987012987 x[2,7] + 0.0633279220779221 x[2,8]
   + 0.0510551948051948 x[2,9] >= 0
 findWorstP[2,3]: z + 0.0974025974025974 cashProportion[2]
   - 0.0974025974025974 cashProportion[3] + 0.1399512987012987 x[2,1]
   + 0.1232142857142857 x[2,2] + 0.0653084415584416 x[2,3]
   + 0.1409902597402597 x[2,4] + 0.1120454545454545 x[2,5]
   + 0.0796915584415584 x[2,6] + 0.127012987012987 x[2,7]
   + 0.0633279220779221 x[2,8] + 0.0510551948051948 x[2,9]
   - 0.1399512987012987 x[3,1] - 0.1232142857142857 x[3,2]
   - 0.0653084415584416 x[3,3] - 0.1409902597402597 x[3,4]
   - 0.1120454545454545 x[3,5] - 0.0796915584415584 x[3,6]
   - 0.127012987012987 x[3,7] - 0.0633279220779221 x[3,8]
   - 0.0510551948051948 x[3,9] >= 0
 findWorstP[2,4]: z + 0.0974025974025974 cashProportion[2]
   - 0.0974025974025974 cashProportion[4] + 0.1399512987012987 x[2,1]
   + 0.1232142857142857 x[2,2] + 0.0653084415584416 x[2,3]
   + 0.1409902597402597 x[2,4] + 0.1120454545454545 x[2,5]
   + 0.0796915584415584 x[2,6] + 0.127012987012987 x[2,7]
   + 0.0633279220779221 x[2,8] + 0.0510551948051948 x[2,9]
   - 0.1399512987012987 x[4,1] - 0.1232142857142857 x[4,2]
   - 0.0653084415584416 x[4,3] - 0.1409902597402597 x[4,4]
   - 0.1120454545454545 x[4,5] - 0.0796915584415584 x[4,6]
   - 0.127012987012987 x[4,7] - 0.0633279220779221 x[4,8]
   - 0.0510551948051948 x[4,9] >= 0
 findWorstP[3,1]: z - 0.143078573983546 cashProportion[1]
   + 0.143078573983546 cashProportion[3] - 0.1938953141767021 x[1,1]
   - 0.1831167282699416 x[1,2] - 0.0180040538929295 x[1,3]
   - 0.00517467509240491 x[1,4] - 0.1617980207463932 x[1,5]
   - 0.1842136640038154 x[1,6] - 0.00858471443901276 x[1,7]
   - 0.0921187552164063 x[1,8] - 0.0100155001788482 x[1,9]
   + 0.1938953141767021 x[3,1] + 0.1831167282699416 x[3,2]
   + 0.0180040538929295 x[3,3] + 0.00517467509240491 x[3,4]
   + 0.1617980207463932 x[3,5] + 0.1842136640038154 x[3,6]
   + 0.00858471443901276 x[3,7] + 0.0921187552164063 x[3,8]
   + 0.0100155001788482 x[3,9] >= 0
 findWorstP[3,2]: z - 0.143078573983546 cashProportion[2]
   + 0.143078573983546 cashProportion[3] - 0.1938953141767021 x[2,1]
   - 0.1831167282699416 x[2,2] - 0.0180040538929295 x[2,3]
   - 0.00517467509240491 x[2,4] - 0.1617980207463932 x[2,5]
   - 0.1842136640038154 x[2,6] - 0.00858471443901276 x[2,7]
   - 0.0921187552164063 x[2,8] - 0.0100155001788482 x[2,9]
   + 0.1938953141767021 x[3,1] + 0.1831167282699416 x[3,2]
   + 0.0180040538929295 x[3,3] + 0.00517467509240491 x[3,4]
   + 0.1617980207463932 x[3,5] + 0.1842136640038154 x[3,6]
   + 0.00858471443901276 x[3,7] + 0.0921187552164063 x[3,8]
   + 0.0100155001788482 x[3,9] >= 0
 findWorstP[3,4]: z + 0.143078573983546 cashProportion[3]
   - 0.143078573983546 cashProportion[4] + 0.1938953141767021 x[3,1]
   + 0.1831167282699416 x[3,2] + 0.0180040538929295 x[3,3]
   + 0.00517467509240491 x[3,4] + 0.1617980207463932 x[3,5]
   + 0.1842136640038154 x[3,6] + 0.00858471443901276 x[3,7]
   + 0.0921187552164063 x[3,8] + 0.0100155001788482 x[3,9]
   - 0.1938953141767021 x[4,1] - 0.1831167282699416 x[4,2]
   - 0.0180040538929295 x[4,3] - 0.00517467509240491 x[4,4]
   - 0.1617980207463932 x[4,5] - 0.1842136640038154 x[4,6]
   - 0.00858471443901276 x[4,7] - 0.0921187552164063 x[4,8]
   - 0.0100155001788482 x[4,9] >= 0
 findWorstP[4,1]: z - 0.0998502246630055 cashProportion[1]
   + 0.0998502246630055 cashProportion[4] - 0.0936927941421201 x[1,1]
   - 0.136811449492428 x[1,2] - 0.1333832584456648 x[1,3]
   - 0.1258612081877184 x[1,4] - 0.0587618572141787 x[1,5]
   - 0.1224995839573972 x[1,6] - 0.0533366616741554 x[1,7]
   - 0.0579796971209852 x[1,8] - 0.1178232651023465 x[1,9]
   + 0.0936927941421201 x[4,1] + 0.136811449492428 x[4,2]
   + 0.1333832584456648 x[4,3] + 0.1258612081877184 x[4,4]
   + 0.0587618572141787 x[4,5] + 0.1224995839573972 x[4,6]
   + 0.0533366616741554 x[4,7] + 0.0579796971209852 x[4,8]
   + 0.1178232651023465 x[4,9] >= 0
 findWorstP[4,2]: z - 0.0998502246630055 cashProportion[2]
   + 0.0998502246630055 cashProportion[4] - 0.0936927941421201 x[2,1]
   - 0.136811449492428 x[2,2] - 0.1333832584456648 x[2,3]
   - 0.1258612081877184 x[2,4] - 0.0587618572141787 x[2,5]
   - 0.1224995839573972 x[2,6] - 0.0533366616741554 x[2,7]
   - 0.0579796971209852 x[2,8] - 0.1178232651023465 x[2,9]
   + 0.0936927941421201 x[4,1] + 0.136811449492428 x[4,2]
   + 0.1333832584456648 x[4,3] + 0.1258612081877184 x[4,4]
   + 0.0587618572141787 x[4,5] + 0.1224995839573972 x[4,6]
   + 0.0533366616741554 x[4,7] + 0.0579796971209852 x[4,8]
   + 0.1178232651023465 x[4,9] >= 0
 findWorstP[4,3]: z - 0.0998502246630055 cashProportion[3]
   + 0.0998502246630055 cashProportion[4] - 0.0936927941421201 x[3,1]
   - 0.136811449492428 x[3,2] - 0.1333832584456648 x[3,3]
   - 0.1258612081877184 x[3,4] - 0.0587618572141787 x[3,5]
   - 0.1224995839573972 x[3,6] - 0.0533366616741554 x[3,7]
   - 0.0579796971209852 x[3,8] - 0.1178232651023465 x[3,9]
   + 0.0936927941421201 x[4,1] + 0.136811449492428 x[4,2]
   + 0.1333832584456648 x[4,3] + 0.1258612081877184 x[4,4]
   + 0.0587618572141787 x[4,5] + 0.1224995839573972 x[4,6]
   + 0.0533366616741554 x[4,7] + 0.0579796971209852 x[4,8]
   + 0.1178232651023465 x[4,9] >= 0
Bounds
 z <= 1
 -infinity <= cashProportion[1] <= 1
 -infinity <= cashProportion[2] <= 1
 -infinity <= cashProportion[3] <= 1
 -infinity <= cashProportion[4] <= 1
Binaries
 x[1,1] x[1,2] x[1,3] x[1,4] x[1,5] x[1,6] x[1,7] x[1,8] x[1,9] x[2,1]
 x[2,2] x[2,3] x[2,4] x[2,5] x[2,6] x[2,7] x[2,8] x[2,9] x[3,1] x[3,2]
 x[3,3] x[3,4] x[3,5] x[3,6] x[3,7] x[3,8] x[3,9] x[4,1] x[4,2] x[4,3]
 x[4,4] x[4,5] x[4,6] x[4,7] x[4,8] x[4,9]
End
