data/mps_files/pEFS/69_7.mps
NAME foo
ROWS
 N  OBJ
 E  allocateEach[1]
 E  allocateEach[2]
 E  allocateEach[3]
 E  allocateEach[4]
 E  allocateEach[5]
 E  allocateEach[6]
 E  allocateEach[7]
 E  allocateEach[8]
 E  allocateEach[9]
 E  allocateAllCash
 G  findWorstP[1,2]
 G  findWorstP[1,3]
 G  findWorstP[1,4]
 G  findWorstP[2,1]
 G  findWorstP[2,3]
 G  findWorstP[2,4]
 G  findWorstP[3,1]
 G  findWorstP[3,2]
 G  findWorstP[3,4]
 G  findWorstP[4,1]
 G  findWorstP[4,2]
 G  findWorstP[4,3]
COLUMNS
    z         OBJ       1
    z         findWorstP[1,2]  1
    z         findWorstP[1,3]  1
    z         findWorstP[1,4]  1
    z         findWorstP[2,1]  1
    z         findWorstP[2,3]  1
    z         findWorstP[2,4]  1
    z         findWorstP[3,1]  1
    z         findWorstP[3,2]  1
    z         findWorstP[3,4]  1
    z         findWorstP[4,1]  1
    z         findWorstP[4,2]  1
    z         findWorstP[4,3]  1
    cashProportion[1]  allocateAllCash  1
    cashProportion[1]  findWorstP[1,2]  1.2001440172820742e-01
    cashProportion[1]  findWorstP[1,3]  1.2001440172820742e-01
    cashProportion[1]  findWorstP[1,4]  1.2001440172820742e-01
    cashProportion[1]  findWorstP[2,1]  -9.7402597402597421e-02
    cashProportion[1]  findWorstP[3,1]  -1.4307857398354598e-01
    cashProportion[1]  findWorstP[4,1]  -9.9850224663005513e-02
    cashProportion[2]  allocateAllCash  1
    cashProportion[2]  findWorstP[1,2]  -1.2001440172820742e-01
    cashProportion[2]  findWorstP[2,1]  9.7402597402597421e-02
    cashProportion[2]  findWorstP[2,3]  9.7402597402597421e-02
    cashProportion[2]  findWorstP[2,4]  9.7402597402597421e-02
    cashProportion[2]  findWorstP[3,2]  -1.4307857398354598e-01
    cashProportion[2]  findWorstP[4,2]  -9.9850224663005513e-02
    cashProportion[3]  allocateAllCash  1
    cashProportion[3]  findWorstP[1,3]  -1.2001440172820742e-01
    cashProportion[3]  findWorstP[2,3]  -9.7402597402597421e-02
    cashProportion[3]  findWorstP[3,1]  1.4307857398354598e-01
    cashProportion[3]  findWorstP[3,2]  1.4307857398354598e-01
    cashProportion[3]  findWorstP[3,4]  1.4307857398354598e-01
    cashProportion[3]  findWorstP[4,3]  -9.9850224663005513e-02
    cashProportion[4]  allocateAllCash  1
    cashProportion[4]  findWorstP[1,4]  -1.2001440172820742e-01
    cashProportion[4]  findWorstP[2,4]  -9.7402597402597421e-02
    cashProportion[4]  findWorstP[3,4]  -1.4307857398354598e-01
    cashProportion[4]  findWorstP[4,1]  9.9850224663005513e-02
    cashProportion[4]  findWorstP[4,2]  9.9850224663005513e-02
    cashProportion[4]  findWorstP[4,3]  9.9850224663005513e-02
    MARKER    'MARKER'                 'INTORG'
    x[1,1]    allocateEach[1]  1
    x[1,1]    findWorstP[1,2]  1.7728127375285035e-01
    x[1,1]    findWorstP[1,3]  1.7728127375285035e-01
    x[1,1]    findWorstP[1,4]  1.7728127375285035e-01
    x[1,1]    findWorstP[2,1]  -1.3995129870129869e-01
    x[1,1]    findWorstP[3,1]  -1.9389531417670205e-01
    x[1,1]    findWorstP[4,1]  -9.3692794142120145e-02
    x[1,2]    allocateEach[2]  1
    x[1,2]    findWorstP[1,2]  1.3439612753530425e-01
    x[1,2]    findWorstP[1,3]  1.3439612753530425e-01
    x[1,2]    findWorstP[1,4]  1.3439612753530425e-01
    x[1,2]    findWorstP[2,1]  -1.2321428571428572e-01
    x[1,2]    findWorstP[3,1]  -1.8311672826994158e-01
    x[1,2]    findWorstP[4,1]  -1.3681144949242804e-01
    x[1,3]    allocateEach[3]  1
    x[1,3]    findWorstP[1,2]  1.1079329519542346e-01
    x[1,3]    findWorstP[1,3]  1.1079329519542346e-01
    x[1,3]    findWorstP[1,4]  1.1079329519542346e-01
    x[1,3]    findWorstP[2,1]  -6.5308441558441552e-02
    x[1,3]    findWorstP[3,1]  -1.8004053892929531e-02
    x[1,3]    findWorstP[4,1]  -1.3338325844566484e-01
    x[1,4]    allocateEach[4]  1
    x[1,4]    findWorstP[1,2]  3.5084210105212628e-02
    x[1,4]    findWorstP[1,3]  3.5084210105212628e-02
    x[1,4]    findWorstP[1,4]  3.5084210105212628e-02
    x[1,4]    findWorstP[2,1]  -1.4099025974025975e-01
    x[1,4]    findWorstP[3,1]  -5.1746750924049120e-03
    x[1,4]    findWorstP[4,1]  -1.2586120818771843e-01
    x[1,5]    allocateEach[5]  1
    x[1,5]    findWorstP[1,2]  4.0104812577509308e-02
    x[1,5]    findWorstP[1,3]  4.0104812577509308e-02
    x[1,5]    findWorstP[1,4]  4.0104812577509308e-02
    x[1,5]    findWorstP[2,1]  -1.1204545454545455e-01
    x[1,5]    findWorstP[3,1]  -1.6179802074639321e-01
    x[1,5]    findWorstP[4,1]  -5.8761857214178738e-02
    x[1,6]    allocateEach[6]  1
    x[1,6]    findWorstP[1,2]  1.4587750530063609e-01
    x[1,6]    findWorstP[1,3]  1.4587750530063609e-01
    x[1,6]    findWorstP[1,4]  1.4587750530063609e-01
    x[1,6]    findWorstP[2,1]  -7.9691558441558438e-02
    x[1,6]    findWorstP[3,1]  -1.8421366400381542e-01
    x[1,6]    findWorstP[4,1]  -1.2249958395739724e-01
    x[1,7]    allocateEach[7]  1
    x[1,7]    findWorstP[1,2]  1.2449493939272713e-01
    x[1,7]    findWorstP[1,3]  1.2449493939272713e-01
    x[1,7]    findWorstP[1,4]  1.2449493939272713e-01
    x[1,7]    findWorstP[2,1]  -1.2701298701298702e-01
    x[1,7]    findWorstP[3,1]  -8.5847144390127569e-03
    x[1,7]    findWorstP[4,1]  -5.3336661674155433e-02
    x[1,8]    allocateEach[8]  1
    x[1,8]    findWorstP[1,2]  3.4304116493979284e-02
    x[1,8]    findWorstP[1,3]  3.4304116493979284e-02
    x[1,8]    findWorstP[1,4]  3.4304116493979284e-02
    x[1,8]    findWorstP[2,1]  -6.3327922077922080e-02
    x[1,8]    findWorstP[3,1]  -9.2118755216406334e-02
    x[1,8]    findWorstP[4,1]  -5.7979697120985191e-02
    x[1,9]    allocateEach[9]  1
    x[1,9]    findWorstP[1,2]  7.7649317918150190e-02
    x[1,9]    findWorstP[1,3]  7.7649317918150190e-02
    x[1,9]    findWorstP[1,4]  7.7649317918150190e-02
    x[1,9]    findWorstP[2,1]  -5.1055194805194805e-02
    x[1,9]    findWorstP[3,1]  -1.0015500178848218e-02
    x[1,9]    findWorstP[4,1]  -1.1782326510234647e-01
    x[2,1]    allocateEach[1]  1
    x[2,1]    findWorstP[1,2]  -1.7728127375285035e-01
    x[2,1]    findWorstP[2,1]  1.3995129870129869e-01
    x[2,1]    findWorstP[2,3]  1.3995129870129869e-01
    x[2,1]    findWorstP[2,4]  1.3995129870129869e-01
    x[2,1]    findWorstP[3,2]  -1.9389531417670205e-01
    x[2,1]    findWorstP[4,2]  -9.3692794142120145e-02
    x[2,2]    allocateEach[2]  1
    x[2,2]    findWorstP[1,2]  -1.3439612753530425e-01
    x[2,2]    findWorstP[2,1]  1.2321428571428572e-01
    x[2,2]    findWorstP[2,3]  1.2321428571428572e-01
    x[2,2]    findWorstP[2,4]  1.2321428571428572e-01
    x[2,2]    findWorstP[3,2]  -1.8311672826994158e-01
    x[2,2]    findWorstP[4,2]  -1.3681144949242804e-01
    x[2,3]    allocateEach[3]  1
    x[2,3]    findWorstP[1,2]  -1.1079329519542346e-01
    x[2,3]    findWorstP[2,1]  6.5308441558441552e-02
    x[2,3]    findWorstP[2,3]  6.5308441558441552e-02
    x[2,3]    findWorstP[2,4]  6.5308441558441552e-02
    x[2,3]    findWorstP[3,2]  -1.8004053892929531e-02
    x[2,3]    findWorstP[4,2]  -1.3338325844566484e-01
    x[2,4]    allocateEach[4]  1
    x[2,4]    findWorstP[1,2]  -3.5084210105212628e-02
    x[2,4]    findWorstP[2,1]  1.4099025974025975e-01
    x[2,4]    findWorstP[2,3]  1.4099025974025975e-01
    x[2,4]    findWorstP[2,4]  1.4099025974025975e-01
    x[2,4]    findWorstP[3,2]  -5.1746750924049120e-03
    x[2,4]    findWorstP[4,2]  -1.2586120818771843e-01
    x[2,5]    allocateEach[5]  1
    x[2,5]    findWorstP[1,2]  -4.0104812577509308e-02
    x[2,5]    findWorstP[2,1]  1.1204545454545455e-01
    x[2,5]    findWorstP[2,3]  1.1204545454545455e-01
    x[2,5]    findWorstP[2,4]  1.1204545454545455e-01
    x[2,5]    findWorstP[3,2]  -1.6179802074639321e-01
    x[2,5]    findWorstP[4,2]  -5.8761857214178738e-02
    x[2,6]    allocateEach[6]  1
    x[2,6]    findWorstP[1,2]  -1.4587750530063609e-01
    x[2,6]    findWorstP[2,1]  7.9691558441558438e-02
    x[2,6]    findWorstP[2,3]  7.9691558441558438e-02
    x[2,6]    findWorstP[2,4]  7.9691558441558438e-02
    x[2,6]    findWorstP[3,2]  -1.8421366400381542e-01
    x[2,6]    findWorstP[4,2]  -1.2249958395739724e-01
    x[2,7]    allocateEach[7]  1
    x[2,7]    findWorstP[1,2]  -1.2449493939272713e-01
    x[2,7]    findWorstP[2,1]  1.2701298701298702e-01
    x[2,7]    findWorstP[2,3]  1.2701298701298702e-01
    x[2,7]    findWorstP[2,4]  1.2701298701298702e-01
    x[2,7]    findWorstP[3,2]  -8.5847144390127569e-03
    x[2,7]    findWorstP[4,2]  -5.3336661674155433e-02
    x[2,8]    allocateEach[8]  1
    x[2,8]    findWorstP[1,2]  -3.4304116493979284e-02
    x[2,8]    findWorstP[2,1]  6.3327922077922080e-02
    x[2,8]    findWorstP[2,3]  6.3327922077922080e-02
    x[2,8]    findWorstP[2,4]  6.3327922077922080e-02
    x[2,8]    findWorstP[3,2]  -9.2118755216406334e-02
    x[2,8]    findWorstP[4,2]  -5.7979697120985191e-02
    x[2,9]    allocateEach[9]  1
    x[2,9]    findWorstP[1,2]  -7.7649317918150190e-02
    x[2,9]    findWorstP[2,1]  5.1055194805194805e-02
    x[2,9]    findWorstP[2,3]  5.1055194805194805e-02
    x[2,9]    findWorstP[2,4]  5.1055194805194805e-02
    x[2,9]    findWorstP[3,2]  -1.0015500178848218e-02
    x[2,9]    findWorstP[4,2]  -1.1782326510234647e-01
    x[3,1]    allocateEach[1]  1
    x[3,1]    findWorstP[1,3]  -1.7728127375285035e-01
    x[3,1]    findWorstP[2,3]  -1.3995129870129869e-01
    x[3,1]    findWorstP[3,1]  1.9389531417670205e-01
    x[3,1]    findWorstP[3,2]  1.9389531417670205e-01
    x[3,1]    findWorstP[3,4]  1.9389531417670205e-01
    x[3,1]    findWorstP[4,3]  -9.3692794142120145e-02
    x[3,2]    allocateEach[2]  1
    x[3,2]    findWorstP[1,3]  -1.3439612753530425e-01
    x[3,2]    findWorstP[2,3]  -1.2321428571428572e-01
    x[3,2]    findWorstP[3,1]  1.8311672826994158e-01
    x[3,2]    findWorstP[3,2]  1.8311672826994158e-01
    x[3,2]    findWorstP[3,4]  1.8311672826994158e-01
    x[3,2]    findWorstP[4,3]  -1.3681144949242804e-01
    x[3,3]    allocateEach[3]  1
    x[3,3]    findWorstP[1,3]  -1.1079329519542346e-01
    x[3,3]    findWorstP[2,3]  -6.5308441558441552e-02
    x[3,3]    findWorstP[3,1]  1.8004053892929531e-02
    x[3,3]    findWorstP[3,2]  1.8004053892929531e-02
    x[3,3]    findWorstP[3,4]  1.8004053892929531e-02
    x[3,3]    findWorstP[4,3]  -1.3338325844566484e-01
    x[3,4]    allocateEach[4]  1
    x[3,4]    findWorstP[1,3]  -3.5084210105212628e-02
    x[3,4]    findWorstP[2,3]  -1.4099025974025975e-01
    x[3,4]    findWorstP[3,1]  5.1746750924049120e-03
    x[3,4]    findWorstP[3,2]  5.1746750924049120e-03
    x[3,4]    findWorstP[3,4]  5.1746750924049120e-03
    x[3,4]    findWorstP[4,3]  -1.2586120818771843e-01
    x[3,5]    allocateEach[5]  1
    x[3,5]    findWorstP[1,3]  -4.0104812577509308e-02
    x[3,5]    findWorstP[2,3]  -1.1204545454545455e-01
    x[3,5]    findWorstP[3,1]  1.6179802074639321e-01
    x[3,5]    findWorstP[3,2]  1.6179802074639321e-01
    x[3,5]    findWorstP[3,4]  1.6179802074639321e-01
    x[3,5]    findWorstP[4,3]  -5.8761857214178738e-02
    x[3,6]    allocateEach[6]  1
    x[3,6]    findWorstP[1,3]  -1.4587750530063609e-01
    x[3,6]    findWorstP[2,3]  -7.9691558441558438e-02
    x[3,6]    findWorstP[3,1]  1.8421366400381542e-01
    x[3,6]    findWorstP[3,2]  1.8421366400381542e-01
    x[3,6]    findWorstP[3,4]  1.8421366400381542e-01
    x[3,6]    findWorstP[4,3]  -1.2249958395739724e-01
    x[3,7]    allocateEach[7]  1
    x[3,7]    findWorstP[1,3]  -1.2449493939272713e-01
    x[3,7]    findWorstP[2,3]  -1.2701298701298702e-01
    x[3,7]    findWorstP[3,1]  8.5847144390127569e-03
    x[3,7]    findWorstP[3,2]  8.5847144390127569e-03
    x[3,7]    findWorstP[3,4]  8.5847144390127569e-03
    x[3,7]    findWorstP[4,3]  -5.3336661674155433e-02
    x[3,8]    allocateEach[8]  1
    x[3,8]    findWorstP[1,3]  -3.4304116493979284e-02
    x[3,8]    findWorstP[2,3]  -6.3327922077922080e-02
    x[3,8]    findWorstP[3,1]  9.2118755216406334e-02
    x[3,8]    findWorstP[3,2]  9.2118755216406334e-02
    x[3,8]    findWorstP[3,4]  9.2118755216406334e-02
    x[3,8]    findWorstP[4,3]  -5.7979697120985191e-02
    x[3,9]    allocateEach[9]  1
    x[3,9]    findWorstP[1,3]  -7.7649317918150190e-02
    x[3,9]    findWorstP[2,3]  -5.1055194805194805e-02
    x[3,9]    findWorstP[3,1]  1.0015500178848218e-02
    x[3,9]    findWorstP[3,2]  1.0015500178848218e-02
    x[3,9]    findWorstP[3,4]  1.0015500178848218e-02
    x[3,9]    findWorstP[4,3]  -1.1782326510234647e-01
    x[4,1]    allocateEach[1]  1
    x[4,1]    findWorstP[1,4]  -1.7728127375285035e-01
    x[4,1]    findWorstP[2,4]  -1.3995129870129869e-01
    x[4,1]    findWorstP[3,4]  -1.9389531417670205e-01
    x[4,1]    findWorstP[4,1]  9.3692794142120145e-02
    x[4,1]    findWorstP[4,2]  9.3692794142120145e-02
    x[4,1]    findWorstP[4,3]  9.3692794142120145e-02
    x[4,2]    allocateEach[2]  1
    x[4,2]    findWorstP[1,4]  -1.3439612753530425e-01
    x[4,2]    findWorstP[2,4]  -1.2321428571428572e-01
    x[4,2]    findWorstP[3,4]  -1.8311672826994158e-01
    x[4,2]    findWorstP[4,1]  1.3681144949242804e-01
    x[4,2]    findWorstP[4,2]  1.3681144949242804e-01
    x[4,2]    findWorstP[4,3]  1.3681144949242804e-01
    x[4,3]    allocateEach[3]  1
    x[4,3]    findWorstP[1,4]  -1.1079329519542346e-01
    x[4,3]    findWorstP[2,4]  -6.5308441558441552e-02
    x[4,3]    findWorstP[3,4]  -1.8004053892929531e-02
    x[4,3]    findWorstP[4,1]  1.3338325844566484e-01
    x[4,3]    findWorstP[4,2]  1.3338325844566484e-01
    x[4,3]    findWorstP[4,3]  1.3338325844566484e-01
    x[4,4]    allocateEach[4]  1
    x[4,4]    findWorstP[1,4]  -3.5084210105212628e-02
    x[4,4]    findWorstP[2,4]  -1.4099025974025975e-01
    x[4,4]    findWorstP[3,4]  -5.1746750924049120e-03
    x[4,4]    findWorstP[4,1]  1.2586120818771843e-01
    x[4,4]    findWorstP[4,2]  1.2586120818771843e-01
    x[4,4]    findWorstP[4,3]  1.2586120818771843e-01
    x[4,5]    allocateEach[5]  1
    x[4,5]    findWorstP[1,4]  -4.0104812577509308e-02
    x[4,5]    findWorstP[2,4]  -1.1204545454545455e-01
    x[4,5]    findWorstP[3,4]  -1.6179802074639321e-01
    x[4,5]    findWorstP[4,1]  5.8761857214178738e-02
    x[4,5]    findWorstP[4,2]  5.8761857214178738e-02
    x[4,5]    findWorstP[4,3]  5.8761857214178738e-02
    x[4,6]    allocateEach[6]  1
    x[4,6]    findWorstP[1,4]  -1.4587750530063609e-01
    x[4,6]    findWorstP[2,4]  -7.9691558441558438e-02
    x[4,6]    findWorstP[3,4]  -1.8421366400381542e-01
    x[4,6]    findWorstP[4,1]  1.2249958395739724e-01
    x[4,6]    findWorstP[4,2]  1.2249958395739724e-01
    x[4,6]    findWorstP[4,3]  1.2249958395739724e-01
    x[4,7]    allocateEach[7]  1
    x[4,7]    findWorstP[1,4]  -1.2449493939272713e-01
    x[4,7]    findWorstP[2,4]  -1.2701298701298702e-01
    x[4,7]    findWorstP[3,4]  -8.5847144390127569e-03
    x[4,7]    findWorstP[4,1]  5.3336661674155433e-02
    x[4,7]    findWorstP[4,2]  5.3336661674155433e-02
    x[4,7]    findWorstP[4,3]  5.3336661674155433e-02
    x[4,8]    allocateEach[8]  1
    x[4,8]    findWorstP[1,4]  -3.4304116493979284e-02
    x[4,8]    findWorstP[2,4]  -6.3327922077922080e-02
    x[4,8]    findWorstP[3,4]  -9.2118755216406334e-02
    x[4,8]    findWorstP[4,1]  5.7979697120985191e-02
    x[4,8]    findWorstP[4,2]  5.7979697120985191e-02
    x[4,8]    findWorstP[4,3]  5.7979697120985191e-02
    x[4,9]    allocateEach[9]  1
    x[4,9]    findWorstP[1,4]  -7.7649317918150190e-02
    x[4,9]    findWorstP[2,4]  -5.1055194805194805e-02
    x[4,9]    findWorstP[3,4]  -1.0015500178848218e-02
    x[4,9]    findWorstP[4,1]  1.1782326510234647e-01
    x[4,9]    findWorstP[4,2]  1.1782326510234647e-01
    x[4,9]    findWorstP[4,3]  1.1782326510234647e-01
    MARKER    'MARKER'                 'INTEND'
RHS
    RHS1      allocateEach[1]  1
    RHS1      allocateEach[2]  1
    RHS1      allocateEach[3]  1
    RHS1      allocateEach[4]  1
    RHS1      allocateEach[5]  1
    RHS1      allocateEach[6]  1
    RHS1      allocateEach[7]  1
    RHS1      allocateEach[8]  1
    RHS1      allocateEach[9]  1
    RHS1      allocateAllCash  1
BOUNDS
 UP BND1      z         1
 MI BND1      cashProportion[1]
 UP BND1      cashProportion[1]  1
 MI BND1      cashProportion[2]
 UP BND1      cashProportion[2]  1
 MI BND1      cashProportion[3]
 UP BND1      cashProportion[3]  1
 MI BND1      cashProportion[4]
 UP BND1      cashProportion[4]  1
 BV BND1      x[1,1]  
 BV BND1      x[1,2]  
 BV BND1      x[1,3]  
 BV BND1      x[1,4]  
 BV BND1      x[1,5]  
 BV BND1      x[1,6]  
 BV BND1      x[1,7]  
 BV BND1      x[1,8]  
 BV BND1      x[1,9]  
 BV BND1      x[2,1]  
 BV BND1      x[2,2]  
 BV BND1      x[2,3]  
 BV BND1      x[2,4]  
 BV BND1      x[2,5]  
 BV BND1      x[2,6]  
 BV BND1      x[2,7]  
 BV BND1      x[2,8]  
 BV BND1      x[2,9]  
 BV BND1      x[3,1]  
 BV BND1      x[3,2]  
 BV BND1      x[3,3]  
 BV BND1      x[3,4]  
 BV BND1      x[3,5]  
 BV BND1      x[3,6]  
 BV BND1      x[3,7]  
 BV BND1      x[3,8]  
 BV BND1      x[3,9]  
 BV BND1      x[4,1]  
 BV BND1      x[4,2]  
 BV BND1      x[4,3]  
 BV BND1      x[4,4]  
 BV BND1      x[4,5]  
 BV BND1      x[4,6]  
 BV BND1      x[4,7]  
 BV BND1      x[4,8]  
 BV BND1      x[4,9]  
ENDATA
